n_machines = 5;
n_resources = 10;
n_jobs = 82;
horizon = 4577;
LB = 915;
n_jobs_per_resource = [8, 6, 8, 6, 2, 3, 11, 10, 15, 13];
duration = [94, 45, 30, 14, 96, 43, 40, 35, 46, 3, 77, 57, 76, 42, 79, 81, 28, 53, 94, 43, 50, 29, 90, 98, 88, 73, 90, 30, 34, 14, 60, 32, 1, 33, 32, 93, 47, 29, 95, 49, 29, 90, 35, 39, 22, 41, 31, 89, 66, 83, 35, 30, 81, 80, 25, 19, 64, 57, 96, 58, 38, 45, 90, 54, 93, 49, 29, 63, 95, 47, 99, 41, 88, 42, 18, 49, 78, 49, 79, 68, 81, 69]